p edge	144	1656
e	1	2
e	1	3
e	1	4
e	1	5
e	1	6
e	1	45
e	1	46
e	1	47
e	1	48
e	1	49
e	1	50
e	1	51
e	1	52
e	1	53
e	1	54
e	1	55
e	1	56
e	1	57
e	1	137
e	1	138
e	1	139
e	1	140
e	1	141
e	1	142
e	1	143
e	1	144
e	2	3
e	2	4
e	2	5
e	2	6
e	2	45
e	2	46
e	2	47
e	2	48
e	2	49
e	2	50
e	2	51
e	2	52
e	2	53
e	2	54
e	2	55
e	2	56
e	2	57
e	2	137
e	2	138
e	2	139
e	2	140
e	2	141
e	2	142
e	2	143
e	2	144
e	3	4
e	3	5
e	3	6
e	3	7
e	3	8
e	3	47
e	3	48
e	3	49
e	3	50
e	3	51
e	3	52
e	3	53
e	3	54
e	3	55
e	3	56
e	3	57
e	3	58
e	3	59
e	3	60
e	3	61
e	3	141
e	3	142
e	3	143
e	3	144
e	4	5
e	4	6
e	4	7
e	4	8
e	4	47
e	4	48
e	4	49
e	4	50
e	4	51
e	4	52
e	4	53
e	4	54
e	4	55
e	4	56
e	4	57
e	4	58
e	4	59
e	4	60
e	4	61
e	4	141
e	4	142
e	4	143
e	4	144
e	5	6
e	5	7
e	5	8
e	5	9
e	5	10
e	5	49
e	5	50
e	5	51
e	5	52
e	5	53
e	5	54
e	5	55
e	5	56
e	5	57
e	5	58
e	5	59
e	5	60
e	5	61
e	5	62
e	5	63
e	5	64
e	5	65
e	6	7
e	6	8
e	6	9
e	6	10
e	6	49
e	6	50
e	6	51
e	6	52
e	6	53
e	6	54
e	6	55
e	6	56
e	6	57
e	6	58
e	6	59
e	6	60
e	6	61
e	6	62
e	6	63
e	6	64
e	6	65
e	7	8
e	7	9
e	7	10
e	7	11
e	7	12
e	7	53
e	7	54
e	7	55
e	7	56
e	7	57
e	7	58
e	7	59
e	7	60
e	7	61
e	7	62
e	7	63
e	7	64
e	7	65
e	7	66
e	7	67
e	7	68
e	7	69
e	8	9
e	8	10
e	8	11
e	8	12
e	8	53
e	8	54
e	8	55
e	8	56
e	8	57
e	8	58
e	8	59
e	8	60
e	8	61
e	8	62
e	8	63
e	8	64
e	8	65
e	8	66
e	8	67
e	8	68
e	8	69
e	9	10
e	9	11
e	9	12
e	9	13
e	9	14
e	9	57
e	9	58
e	9	59
e	9	60
e	9	61
e	9	62
e	9	63
e	9	64
e	9	65
e	9	66
e	9	67
e	9	68
e	9	69
e	9	70
e	9	71
e	9	72
e	9	73
e	10	11
e	10	12
e	10	13
e	10	14
e	10	57
e	10	58
e	10	59
e	10	60
e	10	61
e	10	62
e	10	63
e	10	64
e	10	65
e	10	66
e	10	67
e	10	68
e	10	69
e	10	70
e	10	71
e	10	72
e	10	73
e	11	12
e	11	13
e	11	14
e	11	15
e	11	16
e	11	61
e	11	62
e	11	63
e	11	64
e	11	65
e	11	66
e	11	67
e	11	68
e	11	69
e	11	70
e	11	71
e	11	72
e	11	73
e	11	74
e	11	75
e	11	76
e	11	77
e	12	13
e	12	14
e	12	15
e	12	16
e	12	61
e	12	62
e	12	63
e	12	64
e	12	65
e	12	66
e	12	67
e	12	68
e	12	69
e	12	70
e	12	71
e	12	72
e	12	73
e	12	74
e	12	75
e	12	76
e	12	77
e	13	14
e	13	15
e	13	16
e	13	17
e	13	18
e	13	65
e	13	66
e	13	67
e	13	68
e	13	69
e	13	70
e	13	71
e	13	72
e	13	73
e	13	74
e	13	75
e	13	76
e	13	77
e	13	78
e	13	79
e	13	80
e	13	81
e	14	15
e	14	16
e	14	17
e	14	18
e	14	65
e	14	66
e	14	67
e	14	68
e	14	69
e	14	70
e	14	71
e	14	72
e	14	73
e	14	74
e	14	75
e	14	76
e	14	77
e	14	78
e	14	79
e	14	80
e	14	81
e	15	16
e	15	17
e	15	18
e	15	19
e	15	20
e	15	69
e	15	70
e	15	71
e	15	72
e	15	73
e	15	74
e	15	75
e	15	76
e	15	77
e	15	78
e	15	79
e	15	80
e	15	81
e	15	82
e	15	83
e	15	84
e	15	85
e	16	17
e	16	18
e	16	19
e	16	20
e	16	69
e	16	70
e	16	71
e	16	72
e	16	73
e	16	74
e	16	75
e	16	76
e	16	77
e	16	78
e	16	79
e	16	80
e	16	81
e	16	82
e	16	83
e	16	84
e	16	85
e	17	18
e	17	19
e	17	20
e	17	21
e	17	22
e	17	73
e	17	74
e	17	75
e	17	76
e	17	77
e	17	78
e	17	79
e	17	80
e	17	81
e	17	82
e	17	83
e	17	84
e	17	85
e	17	86
e	17	87
e	17	88
e	17	89
e	18	19
e	18	20
e	18	21
e	18	22
e	18	73
e	18	74
e	18	75
e	18	76
e	18	77
e	18	78
e	18	79
e	18	80
e	18	81
e	18	82
e	18	83
e	18	84
e	18	85
e	18	86
e	18	87
e	18	88
e	18	89
e	19	20
e	19	21
e	19	22
e	19	23
e	19	24
e	19	77
e	19	78
e	19	79
e	19	80
e	19	81
e	19	82
e	19	83
e	19	84
e	19	85
e	19	86
e	19	87
e	19	88
e	19	89
e	19	90
e	19	91
e	19	92
e	19	93
e	20	21
e	20	22
e	20	23
e	20	24
e	20	77
e	20	78
e	20	79
e	20	80
e	20	81
e	20	82
e	20	83
e	20	84
e	20	85
e	20	86
e	20	87
e	20	88
e	20	89
e	20	90
e	20	91
e	20	92
e	20	93
e	21	22
e	21	23
e	21	24
e	21	25
e	21	26
e	21	81
e	21	82
e	21	83
e	21	84
e	21	85
e	21	86
e	21	87
e	21	88
e	21	89
e	21	90
e	21	91
e	21	92
e	21	93
e	21	94
e	21	95
e	21	96
e	21	97
e	22	23
e	22	24
e	22	25
e	22	26
e	22	81
e	22	82
e	22	83
e	22	84
e	22	85
e	22	86
e	22	87
e	22	88
e	22	89
e	22	90
e	22	91
e	22	92
e	22	93
e	22	94
e	22	95
e	22	96
e	22	97
e	23	24
e	23	25
e	23	26
e	23	27
e	23	28
e	23	85
e	23	86
e	23	87
e	23	88
e	23	89
e	23	90
e	23	91
e	23	92
e	23	93
e	23	94
e	23	95
e	23	96
e	23	97
e	23	98
e	23	99
e	23	100
e	23	101
e	24	25
e	24	26
e	24	27
e	24	28
e	24	85
e	24	86
e	24	87
e	24	88
e	24	89
e	24	90
e	24	91
e	24	92
e	24	93
e	24	94
e	24	95
e	24	96
e	24	97
e	24	98
e	24	99
e	24	100
e	24	101
e	25	26
e	25	27
e	25	28
e	25	29
e	25	30
e	25	89
e	25	90
e	25	91
e	25	92
e	25	93
e	25	94
e	25	95
e	25	96
e	25	97
e	25	98
e	25	99
e	25	100
e	25	101
e	25	102
e	25	103
e	25	104
e	25	105
e	26	27
e	26	28
e	26	29
e	26	30
e	26	89
e	26	90
e	26	91
e	26	92
e	26	93
e	26	94
e	26	95
e	26	96
e	26	97
e	26	98
e	26	99
e	26	100
e	26	101
e	26	102
e	26	103
e	26	104
e	26	105
e	27	28
e	27	29
e	27	30
e	27	31
e	27	32
e	27	93
e	27	94
e	27	95
e	27	96
e	27	97
e	27	98
e	27	99
e	27	100
e	27	101
e	27	102
e	27	103
e	27	104
e	27	105
e	27	106
e	27	107
e	27	108
e	27	109
e	28	29
e	28	30
e	28	31
e	28	32
e	28	93
e	28	94
e	28	95
e	28	96
e	28	97
e	28	98
e	28	99
e	28	100
e	28	101
e	28	102
e	28	103
e	28	104
e	28	105
e	28	106
e	28	107
e	28	108
e	28	109
e	29	30
e	29	31
e	29	32
e	29	33
e	29	34
e	29	97
e	29	98
e	29	99
e	29	100
e	29	101
e	29	102
e	29	103
e	29	104
e	29	105
e	29	106
e	29	107
e	29	108
e	29	109
e	29	110
e	29	111
e	29	112
e	29	113
e	30	31
e	30	32
e	30	33
e	30	34
e	30	97
e	30	98
e	30	99
e	30	100
e	30	101
e	30	102
e	30	103
e	30	104
e	30	105
e	30	106
e	30	107
e	30	108
e	30	109
e	30	110
e	30	111
e	30	112
e	30	113
e	31	32
e	31	33
e	31	34
e	31	35
e	31	36
e	31	101
e	31	102
e	31	103
e	31	104
e	31	105
e	31	106
e	31	107
e	31	108
e	31	109
e	31	110
e	31	111
e	31	112
e	31	113
e	31	114
e	31	115
e	31	116
e	31	117
e	32	33
e	32	34
e	32	35
e	32	36
e	32	101
e	32	102
e	32	103
e	32	104
e	32	105
e	32	106
e	32	107
e	32	108
e	32	109
e	32	110
e	32	111
e	32	112
e	32	113
e	32	114
e	32	115
e	32	116
e	32	117
e	33	34
e	33	35
e	33	36
e	33	37
e	33	38
e	33	105
e	33	106
e	33	107
e	33	108
e	33	109
e	33	110
e	33	111
e	33	112
e	33	113
e	33	114
e	33	115
e	33	116
e	33	117
e	33	118
e	33	119
e	33	120
e	33	121
e	34	35
e	34	36
e	34	37
e	34	38
e	34	105
e	34	106
e	34	107
e	34	108
e	34	109
e	34	110
e	34	111
e	34	112
e	34	113
e	34	114
e	34	115
e	34	116
e	34	117
e	34	118
e	34	119
e	34	120
e	34	121
e	35	36
e	35	37
e	35	38
e	35	39
e	35	40
e	35	109
e	35	110
e	35	111
e	35	112
e	35	113
e	35	114
e	35	115
e	35	116
e	35	117
e	35	118
e	35	119
e	35	120
e	35	121
e	35	122
e	35	123
e	35	124
e	35	125
e	36	37
e	36	38
e	36	39
e	36	40
e	36	109
e	36	110
e	36	111
e	36	112
e	36	113
e	36	114
e	36	115
e	36	116
e	36	117
e	36	118
e	36	119
e	36	120
e	36	121
e	36	122
e	36	123
e	36	124
e	36	125
e	37	38
e	37	39
e	37	40
e	37	41
e	37	42
e	37	113
e	37	114
e	37	115
e	37	116
e	37	117
e	37	118
e	37	119
e	37	120
e	37	121
e	37	122
e	37	123
e	37	124
e	37	125
e	37	126
e	37	127
e	37	128
e	37	129
e	38	39
e	38	40
e	38	41
e	38	42
e	38	113
e	38	114
e	38	115
e	38	116
e	38	117
e	38	118
e	38	119
e	38	120
e	38	121
e	38	122
e	38	123
e	38	124
e	38	125
e	38	126
e	38	127
e	38	128
e	38	129
e	39	40
e	39	41
e	39	42
e	39	43
e	39	44
e	39	117
e	39	118
e	39	119
e	39	120
e	39	121
e	39	122
e	39	123
e	39	124
e	39	125
e	39	126
e	39	127
e	39	128
e	39	129
e	39	130
e	39	131
e	39	132
e	39	133
e	40	41
e	40	42
e	40	43
e	40	44
e	40	117
e	40	118
e	40	119
e	40	120
e	40	121
e	40	122
e	40	123
e	40	124
e	40	125
e	40	126
e	40	127
e	40	128
e	40	129
e	40	130
e	40	131
e	40	132
e	40	133
e	41	42
e	41	43
e	41	44
e	41	45
e	41	46
e	41	121
e	41	122
e	41	123
e	41	124
e	41	125
e	41	126
e	41	127
e	41	128
e	41	129
e	41	130
e	41	131
e	41	132
e	41	133
e	41	134
e	41	135
e	41	136
e	41	137
e	42	43
e	42	44
e	42	45
e	42	46
e	42	121
e	42	122
e	42	123
e	42	124
e	42	125
e	42	126
e	42	127
e	42	128
e	42	129
e	42	130
e	42	131
e	42	132
e	42	133
e	42	134
e	42	135
e	42	136
e	42	137
e	43	44
e	43	45
e	43	46
e	43	47
e	43	48
e	43	125
e	43	126
e	43	127
e	43	128
e	43	129
e	43	130
e	43	131
e	43	132
e	43	133
e	43	134
e	43	135
e	43	136
e	43	137
e	43	138
e	43	139
e	43	140
e	43	141
e	44	45
e	44	46
e	44	47
e	44	48
e	44	125
e	44	126
e	44	127
e	44	128
e	44	129
e	44	130
e	44	131
e	44	132
e	44	133
e	44	134
e	44	135
e	44	136
e	44	137
e	44	138
e	44	139
e	44	140
e	44	141
e	45	46
e	45	47
e	45	48
e	45	49
e	45	129
e	45	130
e	45	131
e	45	132
e	45	133
e	45	134
e	45	135
e	45	136
e	45	137
e	45	138
e	45	139
e	45	140
e	45	141
e	45	142
e	45	143
e	45	144
e	46	47
e	46	48
e	46	49
e	46	129
e	46	130
e	46	131
e	46	132
e	46	133
e	46	134
e	46	135
e	46	136
e	46	137
e	46	138
e	46	139
e	46	140
e	46	141
e	46	142
e	46	143
e	46	144
e	47	48
e	47	49
e	47	50
e	47	51
e	47	52
e	47	53
e	47	133
e	47	134
e	47	135
e	47	136
e	47	137
e	47	138
e	47	139
e	47	140
e	47	141
e	47	142
e	47	143
e	47	144
e	48	49
e	48	50
e	48	51
e	48	52
e	48	53
e	48	133
e	48	134
e	48	135
e	48	136
e	48	137
e	48	138
e	48	139
e	48	140
e	48	141
e	48	142
e	48	143
e	48	144
e	49	50
e	49	51
e	49	52
e	49	53
e	49	54
e	49	55
e	49	56
e	49	57
e	49	137
e	49	138
e	49	139
e	49	140
e	49	141
e	49	142
e	49	143
e	49	144
e	50	51
e	50	52
e	50	53
e	50	54
e	50	55
e	50	56
e	50	57
e	50	141
e	50	142
e	50	143
e	50	144
e	51	52
e	51	53
e	51	54
e	51	55
e	51	56
e	51	57
e	51	141
e	51	142
e	51	143
e	51	144
e	52	53
e	52	54
e	52	55
e	52	56
e	52	57
e	52	141
e	52	142
e	52	143
e	52	144
e	53	54
e	53	55
e	53	56
e	53	57
e	53	58
e	53	59
e	53	60
e	53	61
e	53	141
e	53	142
e	53	143
e	53	144
e	54	55
e	54	56
e	54	57
e	54	58
e	54	59
e	54	60
e	54	61
e	55	56
e	55	57
e	55	58
e	55	59
e	55	60
e	55	61
e	56	57
e	56	58
e	56	59
e	56	60
e	56	61
e	57	58
e	57	59
e	57	60
e	57	61
e	57	62
e	57	63
e	57	64
e	57	65
e	58	59
e	58	60
e	58	61
e	58	62
e	58	63
e	58	64
e	58	65
e	59	60
e	59	61
e	59	62
e	59	63
e	59	64
e	59	65
e	60	61
e	60	62
e	60	63
e	60	64
e	60	65
e	61	62
e	61	63
e	61	64
e	61	65
e	61	66
e	61	67
e	61	68
e	61	69
e	62	63
e	62	64
e	62	65
e	62	66
e	62	67
e	62	68
e	62	69
e	63	64
e	63	65
e	63	66
e	63	67
e	63	68
e	63	69
e	64	65
e	64	66
e	64	67
e	64	68
e	64	69
e	65	66
e	65	67
e	65	68
e	65	69
e	65	70
e	65	71
e	65	72
e	65	73
e	66	67
e	66	68
e	66	69
e	66	70
e	66	71
e	66	72
e	66	73
e	67	68
e	67	69
e	67	70
e	67	71
e	67	72
e	67	73
e	68	69
e	68	70
e	68	71
e	68	72
e	68	73
e	69	70
e	69	71
e	69	72
e	69	73
e	69	74
e	69	75
e	69	76
e	69	77
e	70	71
e	70	72
e	70	73
e	70	74
e	70	75
e	70	76
e	70	77
e	71	72
e	71	73
e	71	74
e	71	75
e	71	76
e	71	77
e	72	73
e	72	74
e	72	75
e	72	76
e	72	77
e	73	74
e	73	75
e	73	76
e	73	77
e	73	78
e	73	79
e	73	80
e	73	81
e	74	75
e	74	76
e	74	77
e	74	78
e	74	79
e	74	80
e	74	81
e	75	76
e	75	77
e	75	78
e	75	79
e	75	80
e	75	81
e	76	77
e	76	78
e	76	79
e	76	80
e	76	81
e	77	78
e	77	79
e	77	80
e	77	81
e	77	82
e	77	83
e	77	84
e	77	85
e	78	79
e	78	80
e	78	81
e	78	82
e	78	83
e	78	84
e	78	85
e	79	80
e	79	81
e	79	82
e	79	83
e	79	84
e	79	85
e	80	81
e	80	82
e	80	83
e	80	84
e	80	85
e	81	82
e	81	83
e	81	84
e	81	85
e	81	86
e	81	87
e	81	88
e	81	89
e	82	83
e	82	84
e	82	85
e	82	86
e	82	87
e	82	88
e	82	89
e	83	84
e	83	85
e	83	86
e	83	87
e	83	88
e	83	89
e	84	85
e	84	86
e	84	87
e	84	88
e	84	89
e	85	86
e	85	87
e	85	88
e	85	89
e	85	90
e	85	91
e	85	92
e	85	93
e	86	87
e	86	88
e	86	89
e	86	90
e	86	91
e	86	92
e	86	93
e	87	88
e	87	89
e	87	90
e	87	91
e	87	92
e	87	93
e	88	89
e	88	90
e	88	91
e	88	92
e	88	93
e	89	90
e	89	91
e	89	92
e	89	93
e	89	94
e	89	95
e	89	96
e	89	97
e	90	91
e	90	92
e	90	93
e	90	94
e	90	95
e	90	96
e	90	97
e	91	92
e	91	93
e	91	94
e	91	95
e	91	96
e	91	97
e	92	93
e	92	94
e	92	95
e	92	96
e	92	97
e	93	94
e	93	95
e	93	96
e	93	97
e	93	98
e	93	99
e	93	100
e	93	101
e	94	95
e	94	96
e	94	97
e	94	98
e	94	99
e	94	100
e	94	101
e	95	96
e	95	97
e	95	98
e	95	99
e	95	100
e	95	101
e	96	97
e	96	98
e	96	99
e	96	100
e	96	101
e	97	98
e	97	99
e	97	100
e	97	101
e	97	102
e	97	103
e	97	104
e	97	105
e	98	99
e	98	100
e	98	101
e	98	102
e	98	103
e	98	104
e	98	105
e	99	100
e	99	101
e	99	102
e	99	103
e	99	104
e	99	105
e	100	101
e	100	102
e	100	103
e	100	104
e	100	105
e	101	102
e	101	103
e	101	104
e	101	105
e	101	106
e	101	107
e	101	108
e	101	109
e	102	103
e	102	104
e	102	105
e	102	106
e	102	107
e	102	108
e	102	109
e	103	104
e	103	105
e	103	106
e	103	107
e	103	108
e	103	109
e	104	105
e	104	106
e	104	107
e	104	108
e	104	109
e	105	106
e	105	107
e	105	108
e	105	109
e	105	110
e	105	111
e	105	112
e	105	113
e	106	107
e	106	108
e	106	109
e	106	110
e	106	111
e	106	112
e	106	113
e	107	108
e	107	109
e	107	110
e	107	111
e	107	112
e	107	113
e	108	109
e	108	110
e	108	111
e	108	112
e	108	113
e	109	110
e	109	111
e	109	112
e	109	113
e	109	114
e	109	115
e	109	116
e	109	117
e	110	111
e	110	112
e	110	113
e	110	114
e	110	115
e	110	116
e	110	117
e	111	112
e	111	113
e	111	114
e	111	115
e	111	116
e	111	117
e	112	113
e	112	114
e	112	115
e	112	116
e	112	117
e	113	114
e	113	115
e	113	116
e	113	117
e	113	118
e	113	119
e	113	120
e	113	121
e	114	115
e	114	116
e	114	117
e	114	118
e	114	119
e	114	120
e	114	121
e	115	116
e	115	117
e	115	118
e	115	119
e	115	120
e	115	121
e	116	117
e	116	118
e	116	119
e	116	120
e	116	121
e	117	118
e	117	119
e	117	120
e	117	121
e	117	122
e	117	123
e	117	124
e	117	125
e	118	119
e	118	120
e	118	121
e	118	122
e	118	123
e	118	124
e	118	125
e	119	120
e	119	121
e	119	122
e	119	123
e	119	124
e	119	125
e	120	121
e	120	122
e	120	123
e	120	124
e	120	125
e	121	122
e	121	123
e	121	124
e	121	125
e	121	126
e	121	127
e	121	128
e	121	129
e	122	123
e	122	124
e	122	125
e	122	126
e	122	127
e	122	128
e	122	129
e	123	124
e	123	125
e	123	126
e	123	127
e	123	128
e	123	129
e	124	125
e	124	126
e	124	127
e	124	128
e	124	129
e	125	126
e	125	127
e	125	128
e	125	129
e	125	130
e	125	131
e	125	132
e	125	133
e	126	127
e	126	128
e	126	129
e	126	130
e	126	131
e	126	132
e	126	133
e	127	128
e	127	129
e	127	130
e	127	131
e	127	132
e	127	133
e	128	129
e	128	130
e	128	131
e	128	132
e	128	133
e	129	130
e	129	131
e	129	132
e	129	133
e	129	134
e	129	135
e	129	136
e	129	137
e	130	131
e	130	132
e	130	133
e	130	134
e	130	135
e	130	136
e	130	137
e	131	132
e	131	133
e	131	134
e	131	135
e	131	136
e	131	137
e	132	133
e	132	134
e	132	135
e	132	136
e	132	137
e	133	134
e	133	135
e	133	136
e	133	137
e	133	138
e	133	139
e	133	140
e	133	141
e	134	135
e	134	136
e	134	137
e	134	138
e	134	139
e	134	140
e	134	141
e	135	136
e	135	137
e	135	138
e	135	139
e	135	140
e	135	141
e	136	137
e	136	138
e	136	139
e	136	140
e	136	141
e	137	138
e	137	139
e	137	140
e	137	141
e	137	142
e	137	143
e	137	144
e	138	139
e	138	140
e	138	141
e	138	142
e	138	143
e	138	144
e	139	140
e	139	141
e	139	142
e	139	143
e	139	144
e	140	141
e	140	142
e	140	143
e	140	144
e	141	142
e	141	143
e	141	144
e	142	143
e	142	144
e	143	144
